qbf_easy_train/easy_2169_SAT.qdimacs
p cnf 25 60
a 14 23 0
e 1 2 3 4 5 6 7 8 9 10 11 12 13 15 16 17 18 19 20 21 22 24 25 0
3 1 0
3 2 0
-1 -2 -3 0
-5 -2 0
-5 4 0
2 -4 5 0
7 -5 0
7 6 0
5 -6 -7 0
-9 -8 0
-9 4 0
8 -4 9 0
11 9 0
11 10 0
-9 -10 -11 0
-12 7 0
-12 11 0
-7 -11 12 0
-13 14 -15 0
13 -14 -15 0
-13 -14 15 0
13 14 15 0
6 -13 -16 0
-6 13 -16 0
6 13 16 0
-6 -13 16 0
17 -15 0
17 -16 0
15 16 -17 0
18 -1 0
18 5 0
1 -5 -18 0
-19 18 0
-19 -4 0
-18 4 19 0
-20 2 0
-20 19 0
-2 -19 20 0
-21 17 0
-21 20 0
-17 -20 21 0
-22 12 0
-22 21 0
-12 -21 22 0
-23 1 0
-23 18 0
-1 -18 23 0
24 -22 0
24 -23 0
22 23 -24 0
-3 -24 -25 0
3 24 -25 0
-3 24 25 0
3 -24 25 0
-8 13 17 -19 -5 3 -18 22 0
-18 12 9 0
13 -15 -23 25 0
-9 -23 15 8 21 0
19 -11 16 3 21 0
25 0
