sat_easy_train/easy_2169_SAT.dimacs
p cnf 96 303
4 -2 0
4 -3 0
2 3 -4 0
1 -4 -5 0
-1 4 -5 0
1 4 5 0
-1 -4 5 0
-8 -7 0
-8 1 0
7 -1 8 0
-9 6 0
-9 -8 0
-6 8 9 0
10 -5 0
10 9 0
5 -9 -10 0
-13 -11 0
-13 -12 0
11 12 13 0
15 -13 0
15 -14 0
13 14 -15 0
10 -15 -16 0
-10 15 -16 0
10 15 16 0
-10 -15 16 0
17 2 0
17 12 0
-2 -12 -17 0
-1 2 -18 0
1 -2 -18 0
-1 -2 18 0
1 2 18 0
19 -17 0
19 -18 0
17 18 -19 0
16 -19 -20 0
-16 19 -20 0
16 19 20 0
-16 -19 20 0
-22 -7 -23 0
22 7 -23 0
-22 7 23 0
22 -7 23 0
24 4 0
24 -23 0
-4 23 -24 0
25 -13 0
25 -24 0
13 24 -25 0
-26 -25 0
-26 -4 0
25 4 26 0
-27 4 0
-27 -26 0
-4 26 27 0
28 -21 0
28 -27 0
21 27 -28 0
-29 -22 0
-29 -17 0
22 17 29 0
30 -29 0
30 16 0
29 -16 -30 0
-32 -14 0
-32 -22 0
14 22 32 0
33 31 0
33 -32 0
-31 32 -33 0
-34 33 0
-34 25 0
-33 -25 34 0
-30 34 -35 0
30 -34 -35 0
-30 -34 35 0
30 34 35 0
-36 28 0
-36 35 0
-28 -35 36 0
-37 20 0
-37 -36 0
-20 36 37 0
-38 31 0
-38 11 0
-31 -11 38 0
23 -39 -40 0
-23 39 -40 0
23 39 40 0
-23 -39 40 0
42 -16 0
42 -41 0
16 41 -42 0
43 32 0
43 41 0
-32 -41 -43 0
44 42 0
44 43 0
-42 -43 -44 0
45 40 0
45 -44 0
-40 44 -45 0
-14 -21 -46 0
14 21 -46 0
-14 21 46 0
14 -21 46 0
-3 2 -47 0
3 -2 -47 0
-3 -2 47 0
3 2 47 0
-48 -47 0
-48 -3 0
47 3 48 0
46 48 -49 0
-46 -48 -49 0
46 -48 49 0
-46 48 49 0
50 2 0
50 23 0
-2 -23 -50 0
-51 31 0
-51 -41 0
-31 41 51 0
-52 51 0
-52 -5 0
-51 5 52 0
50 52 -53 0
-50 -52 -53 0
50 -52 53 0
-50 52 53 0
54 -49 0
54 53 0
49 -53 -54 0
-25 -5 -55 0
25 5 -55 0
-25 5 55 0
25 -5 55 0
56 14 0
56 5 0
-14 -5 -56 0
-4 56 -57 0
4 -56 -57 0
-4 -56 57 0
4 56 57 0
-58 55 0
-58 -57 0
-55 57 58 0
54 58 -59 0
-54 -58 -59 0
54 -58 59 0
-54 58 59 0
60 45 0
60 -59 0
-45 59 -60 0
-38 60 -61 0
38 -60 -61 0
-38 -60 61 0
38 60 61 0
62 2 0
62 -17 0
-2 17 -62 0
-63 -19 0
-63 -5 0
19 5 63 0
-64 63 0
-64 -52 0
-63 52 64 0
65 64 0
65 8 0
-64 -8 -65 0
66 -46 0
66 -46 0
46 -66 0
67 -65 0
67 -66 0
65 66 -67 0
-68 15 0
-68 -39 0
-15 39 68 0
9 68 -69 0
-9 -68 -69 0
9 -68 69 0
-9 68 69 0
-70 69 0
-70 51 0
-69 -51 70 0
-71 -67 0
-71 -70 0
67 70 71 0
-73 68 0
-73 -22 0
-68 22 73 0
72 -73 -74 0
-72 73 -74 0
72 73 74 0
-72 -73 74 0
-47 11 -75 0
47 -11 -75 0
-47 -11 75 0
47 11 75 0
-76 -29 0
-76 -75 0
29 75 76 0
77 -29 0
77 69 0
29 -69 -77 0
78 -77 0
78 46 0
77 -46 -78 0
79 76 0
79 78 0
-76 -78 -79 0
80 -74 0
80 79 0
74 -79 -80 0
71 -80 -81 0
-71 80 -81 0
71 80 81 0
-71 -80 81 0
-82 6 0
-82 75 0
-6 -75 82 0
41 -83 -84 0
-41 83 -84 0
41 83 84 0
-41 -83 84 0
46 3 -85 0
-46 -3 -85 0
46 -3 85 0
-46 3 85 0
-84 85 -86 0
84 -85 -86 0
-84 -85 86 0
84 85 86 0
88 -87 0
88 -52 0
87 52 -88 0
-89 86 0
-89 88 0
-86 -88 89 0
-90 7 0
-90 -69 0
-7 69 90 0
91 -89 0
91 -90 0
89 90 -91 0
-92 82 0
-92 -91 0
-82 91 92 0
93 -81 0
93 -92 0
81 92 -93 0
62 -93 -94 0
-62 93 -94 0
62 93 94 0
-62 -93 94 0
95 61 0
95 -94 0
-61 94 -95 0
96 37 0
96 95 0
-37 -95 -96 0
15 -63 -96 -88 69 0
-46 68 33 -26 9 0
70 2 48 0
-19 -7 -60 51 0
-52 70 0
80 -66 -40 86 0
-84 48 83 71 0
82 17 -30 7 0
-43 -85 22 -48 0
63 -4 0
31 -79 0
49 -19 84 -24 0
-17 42 -37 -59 0
-2 -35 0
30 87 -48 -23 65 0
85 17 58 0
-18 -59 14 0
13 -21 0
38 56 0
-48 -7 -86 0
-9 -28 46 0
-44 47 0
33 -53 -1 0
-92 -28 -79 16 48 0
-27 -34 -4 -15 12 -31 0
-67 15 0
39 -96 0
15 64 30 -66 5 0
67 -70 0
11 71 22 0
39 48 27 -65 0
-49 19 -47 -85 -93 78 0
-25 -69 50 -34 0
26 -32 -91 0
42 -5 -40 0
-64 -14 0
34 -40 -88 53 -21 -32 0
14 -20 66 -54 7 0
86 10 96 63 69 0
96 0
